(declare-const p222 Real)
(declare-const p296 Real)
(declare-const p482 Real)
(declare-const income Real)
(declare-const p444 Real)
(declare-const fee_bl Real)
(declare-const p333 Real)
(assert (= p222 (* 0.0222 (ite (> income 10000) 10000 income))))
(assert (= p296 (ite (> income 10000) (* 0.0296 (- (ite (> income 25000) 25000 income) 10000)) 0)))
(assert (= p333 (ite (> income 25000) (* 0.0333 (- (ite (> income 40000) 40000 income) 25000)) 0)))
(assert (= p444 (ite (> income 40000) (* 0.0444 (- (ite (> income 60000) 60000 income) 40000)) 0)))
(assert (= p482 (ite (> income 60000) (* 0.0482 (- income 60000)) 0)))
(assert (= fee_bl (+ (+ (+ (+ p222 p296) p333) p444) p482)))